Version identifier: 20.1.0.0 | 2020-11-10 | 9bedb6d68
Tried aggregator 2 times.
MIP Presolve eliminated 1814 rows and 1085 columns.
MIP Presolve modified 3428 coefficients.
Aggregator did 183 substitutions.
Reduced MIP has 1409 rows, 1139 columns, and 4473 nonzeros.
Reduced MIP has 292 binaries, 847 generals, 0 SOSs, and 0 indicators.
Presolve time = 0.02 sec. (7.55 ticks)
Found incumbent of value 53.000000 after 0.03 sec. (12.68 ticks)
Probing fixed 40 vars, tightened 306 bounds.
Probing time = 0.00 sec. (1.55 ticks)
Tried aggregator 1 time.
Detecting symmetries...
MIP Presolve eliminated 600 rows and 40 columns.
MIP Presolve modified 57 coefficients.
Reduced MIP has 809 rows, 1099 columns, and 2633 nonzeros.
Reduced MIP has 460 binaries, 639 generals, 0 SOSs, and 0 indicators.
Presolve time = 0.01 sec. (3.18 ticks)
Probing time = 0.00 sec. (0.26 ticks)
Clique table members: 81.
MIP emphasis: balance optimality and feasibility.
MIP search method: dynamic search.
Parallel mode: deterministic, using up to 24 threads.
Root relaxation solution time = 0.01 sec. (2.56 ticks)

        Nodes                                         Cuts/
   Node  Left     Objective  IInf  Best Integer    Best Bound    ItCnt     Gap

*     0+    0                           53.0000        0.0000           100.00%
      0     0        0.0000    45       53.0000        0.0000      234  100.00%
*     0+    0                           12.0000        0.0000           100.00%
      0     0        0.0000    63       12.0000     Cuts: 194      420  100.00%
*     0+    0                            6.0000        0.0000           100.00%
      0     0        0.0000    39        6.0000      Cuts: 25      524  100.00%
      0     0        0.0000    49        6.0000      Cuts: 39      572  100.00%
      0     2        0.0000    38        6.0000        5.0000      572   16.67%
Elapsed time = 0.33 sec. (80.08 ticks, tree = 0.02 MB, solutions = 3)
*     1+    1                            5.0000        5.0000             0.00%

Implied bound cuts applied:  53
Mixed integer rounding cuts applied:  9
Zero-half cuts applied:  71
Lift and project cuts applied:  1
Gomory fractional cuts applied:  32

Root node processing (before b&c):
  Real time             =    0.31 sec. (79.72 ticks)
Parallel b&c, 24 threads:
  Real time             =    0.08 sec. (9.90 ticks)
  Sync time (average)   =    0.06 sec.
  Wait time (average)   =    0.00 sec.
                          ------------
Total (root+branch&cut) =    0.40 sec. (89.62 ticks)

Solution status = Optimal
Solution LB = 5
Solution UB = 5
Runtime = 0.406118 seconds
	Command being timed: "/home/min/git_repos/CS598MEBProject/CNT-ILP/build/cnt -s 2 ./output/k6_n40/simC_c1_k6_n40_u1_s2_del02.input-left.cnp"
	User time (seconds): 4.46
	System time (seconds): 0.08
	Percent of CPU this job got: 1004%
	Elapsed (wall clock) time (h:mm:ss or m:ss): 0:00.45
	Average shared text size (kbytes): 0
	Average unshared data size (kbytes): 0
	Average stack size (kbytes): 0
	Average total size (kbytes): 0
	Maximum resident set size (kbytes): 99820
	Average resident set size (kbytes): 0
	Major (requiring I/O) page faults: 2
	Minor (reclaiming a frame) page faults: 22174
	Voluntary context switches: 5804
	Involuntary context switches: 493
	Swaps: 0
	File system inputs: 424
	File system outputs: 16
	Socket messages sent: 0
	Socket messages received: 0
	Signals delivered: 0
	Page size (bytes): 4096
	Exit status: 0
